p cnf 30 75
a 2 15 0
e 1 3 4 5 6 7 8 9 10 11 12 13 14 16 17 18 19 20 21 22 23 24 25 26 27 28 29 30 0
-3 1 0
-3 -2 0
-1 2 3 0
-3 -4 -5 0
3 4 -5 0
-3 4 5 0
3 -4 5 0
6 2 -7 0
-6 -2 -7 0
6 -2 7 0
-6 2 7 0
11 -9 0
11 -10 0
9 10 -11 0
12 8 0
12 -11 0
-8 11 -12 0
14 12 0
14 13 0
-12 -13 -14 0
15 -7 0
15 14 0
7 -14 -15 0
-17 4 0
-17 -16 0
-4 16 17 0
-4 -17 -18 0
4 17 -18 0
-4 17 18 0
4 -17 18 0
-19 -15 0
-19 18 0
15 -18 19 0
3 2 -20 0
-3 -2 -20 0
3 -2 20 0
-3 2 20 0
-19 -20 -21 0
19 20 -21 0
-19 20 21 0
19 -20 21 0
-5 -21 -22 0
5 21 -22 0
-5 21 22 0
5 -21 22 0
23 -11 0
23 -2 0
11 2 -23 0
-24 -4 0
-24 8 0
4 -8 24 0
26 25 0
26 -8 0
-25 8 -26 0
-27 26 0
-27 -11 0
-26 11 27 0
-28 24 0
-28 27 0
-24 -27 28 0
-23 -28 -29 0
23 28 -29 0
-23 28 29 0
23 -28 29 0
-30 -22 0
-30 29 0
22 -29 30 0
-12 -3 -24 26 21 -5 11 0
30 3 -14 -24 0
-12 17 -20 30 6 -3 -22 0
30 9 18 1 0
-3 5 27 -9 8 23 0
-16 22 -24 0
-5 16 4 -8 -28 10 0
30 0
